 vasp.5.4.4.18Apr17-6-g9f103f2a35 (build Aug 01 2018 12:10:22) complex

 executed on        TETRALITH-B01 date 2021.12.21  21:14:33

 INCAR:
 POTCAR:    PAW_PBE Ga 08Apr2002
 POTCAR:    PAW_PBE Co 02Aug2007
 POTCAR:    PAW_PBE S 06Sep2000

 POTCAR:    PAW_PBE Ga 08Apr2002
   VRHFIN =Ga: s2p1

   TITEL  = PAW_PBE Ga 08Apr2002
   POMASS =   69.723; ZVAL   =    3.000    mass and valenz
   ENMAX  =  134.678; ENMIN  =  101.009 eV

 POTCAR:    PAW_PBE Co 02Aug2007
   VRHFIN =Co: d8 s1

   TITEL  = PAW_PBE Co 02Aug2007
   POMASS =   58.933; ZVAL   =    9.000    mass and valenz
   ENMAX  =  267.968; ENMIN  =  200.976 eV

 POTCAR:    PAW_PBE S 06Sep2000
   VRHFIN =S : s2p4

   TITEL  = PAW_PBE S 06Sep2000
   POMASS =   32.066; ZVAL   =    6.000    mass and valenz
   ENMAX  =  258.689; ENMIN  =  194.016 eV

  PAW_PBE Ga 08Apr2002                  :
  PAW_PBE Co 02Aug2007                  :
  PAW_PBE S 06Sep2000                   :

 POSCAR: Ga2 Co1 S4
  positions in direct lattice
  velocities in cartesian coordinates
 exchange correlation table for  LEXCH =       14
   RHO(1)=    0.500       N(1)  =     2000
   RHO(2)=  100.500       N(2)  =     4000

 ion  position               nearest neighbor table
   1  0.333  0.667  0.615-   5 2.26   6 2.33   6 2.33   6 2.33
   2  0.667  0.333  0.385-   4 2.26   7 2.33   7 2.33   7 2.33
   3  0.000  0.000  0.500-   4 2.31   5 2.31   4 2.31   5 2.31   4 2.31   5 2.31
   4  0.667  0.333  0.464-   2 2.26   3 2.31   3 2.31   3 2.31
   5  0.333  0.667  0.536-   1 2.26   3 2.31   3 2.31   3 2.31
   6  0.667  0.333  0.653-   1 2.33   1 2.33   1 2.33
   7  0.333  0.667  0.347-   2 2.33   2 2.33   2 2.33

  LATTYP: Found a hexagonal cell.
 ALAT       =     3.5601458298
 C/A-ratio  =     8.1088147452

  Lattice vectors:

 A1 = (   3.5601451665,   0.0000000000,   0.0000000000)
 A2 = (  -1.7800725832,   3.0831769213,   0.0000000000)
 A3 = (   0.0000000000,   0.0000000000,  28.8685630000)

Analysis of symmetry for initial positions (statically):
 Subroutine PRICEL returns:
 Original cell was already a primitive cell.

 Routine SETGRP: Setting up the symmetry group for a
 hexagonal supercell.

 Subroutine GETGRP returns: Found 12 space group operations
 (whereof 12 operations were pure point group operations)
 out of a pool of 24 trial point group operations.

The static configuration has the point symmetry D_3d.

Analysis of symmetry for dynamics (positions and initial velocities):
 Subroutine PRICEL returns:
 Original cell was already a primitive cell.

[...]

The dynamic configuration has the point symmetry D_3d.

Analysis of structural, dynamic, and magnetic symmetry:
 Subroutine PRICEL returns:
 Original cell was already a primitive cell.

 Routine SETGRP: Setting up the symmetry group for a
 hexagonal supercell.

 Subroutine GETGRP returns: Found 12 space group operations
 (whereof 12 operations were pure point group operations)
 out of a pool of 24 trial point group operations.

The magnetic configuration has the point symmetry D_3d.

 Subroutine INISYM returns: Found 12 space group operations
 (whereof 12 operations are pure point group operations),
 and found     1 'primitive' translations

 KPOINTS: 0.040   9   9   1   12  0.060   44    3
  k-points in reciprocal lattice
Space group operators:
 irot       det(A)        alpha          n_x          n_y          n_z        tau_x        tau_y        tau_z
    1     1.000000     0.000000     1.000000     0.000000     0.000000     0.000000     0.000000     0.000000
    2    -1.000000     0.000000     1.000000     0.000000     0.000000     0.000000     0.000000     0.000000
    3     1.000000   120.000000     0.000000     0.000000    -1.000000     0.000000     0.000000     0.000000
    4    -1.000000   120.000000     0.000000     0.000000    -1.000000     0.000000     0.000000     0.000000
    5     1.000000   120.000000     0.000000     0.000000     1.000000     0.000000     0.000000     0.000000
    6    -1.000000   120.000000     0.000000     0.000000     1.000000     0.000000     0.000000     0.000000
    7     1.000000   180.000000     1.000000    -0.000000     0.000000     0.000000     0.000000     0.000000
    8    -1.000000   180.000000     1.000000    -0.000000     0.000000     0.000000     0.000000     0.000000
    9     1.000000   180.000000     0.500000    -0.866025     0.000000     0.000000     0.000000     0.000000
   10    -1.000000   180.000000     0.500000    -0.866025     0.000000     0.000000     0.000000     0.000000
   11     1.000000   180.000000    -0.500000    -0.866025     0.000000     0.000000     0.000000     0.000000
   12    -1.000000   180.000000    -0.500000    -0.866025     0.000000     0.000000     0.000000     0.000000

 Subroutine IBZKPT_HF returns following result:

 Found    125 k-points in 1st BZ
 the following    125 k-points will be used (e.g. in the exchange kernel)
 Following reciprocal coordinates:   # in IRBZ
  0.000000  0.000000  0.000000    0.01234568   1 t-inv F
  0.111111  0.000000  0.000000    0.01234568   2 t-inv F
  0.222222  0.000000  0.000000    0.01234568   3 t-inv F
  0.333333  0.000000  0.000000    0.01234568   4 t-inv F
  0.444444  0.000000  0.000000    0.01234568   5 t-inv F
  0.111111  0.111111  0.000000    0.01234568   6 t-inv F
  0.222222  0.111111  0.000000    0.01234568   7 t-inv F
  0.333333  0.111111  0.000000    0.01234568   8 t-inv F
  0.444444  0.111111  0.000000    0.01234568   9 t-inv F
  0.222222  0.222222  0.000000    0.01234568  10 t-inv F
  0.333333  0.222222  0.000000    0.01234568  11 t-inv F
  0.333333  0.333333  0.000000    0.01234568  12 t-inv F
  0.500000  0.000000  0.000000    0.00000000  13 t-inv F
  0.479167  0.041667  0.000000    0.00000000  14 t-inv F
  0.458333  0.083333  0.000000    0.00000000  15 t-inv F
  0.437500  0.125000  0.000000    0.00000000  16 t-inv F
  0.416667  0.166667  0.000000    0.00000000  17 t-inv F
  0.395833  0.208333  0.000000    0.00000000  18 t-inv F
  0.375000  0.250000  0.000000    0.00000000  19 t-inv F
  0.354167  0.291667  0.000000    0.00000000  20 t-inv F
  0.333333  0.333333  0.000000    0.00000000  21 t-inv F
  0.333333  0.333333  0.000000    0.00000000  22 t-inv F
  0.314815  0.314815  0.000000    0.00000000  23 t-inv F
  0.296296  0.296296  0.000000    0.00000000  24 t-inv F
  0.277778  0.277778  0.000000    0.00000000  25 t-inv F
  0.259259  0.259259  0.000000    0.00000000  26 t-inv F
  0.240741  0.240741  0.000000    0.00000000  27 t-inv F
  0.222222  0.222222  0.000000    0.00000000  28 t-inv F
  0.203704  0.203704  0.000000    0.00000000  29 t-inv F
  0.185185  0.185185  0.000000    0.00000000  30 t-inv F
  0.166667  0.166667  0.000000    0.00000000  31 t-inv F
  0.148148  0.148148  0.000000    0.00000000  32 t-inv F
  0.129630  0.129630  0.000000    0.00000000  33 t-inv F
  0.111111  0.111111  0.000000    0.00000000  34 t-inv F
  0.092593  0.092593  0.000000    0.00000000  35 t-inv F
  0.074074  0.074074  0.000000    0.00000000  36 t-inv F
  0.055556  0.055556  0.000000    0.00000000  37 t-inv F
  0.037037  0.037037  0.000000    0.00000000  38 t-inv F
  0.018519  0.018519  0.000000    0.00000000  39 t-inv F
  0.000000  0.000000  0.000000    0.00000000  40 t-inv F
  0.000000  0.000000  0.000000    0.00000000  41 t-inv F
  0.033333  0.000000  0.000000    0.00000000  42 t-inv F
  0.066667  0.000000  0.000000    0.00000000  43 t-inv F
  0.100000  0.000000  0.000000    0.00000000  44 t-inv F
  0.133333  0.000000  0.000000    0.00000000  45 t-inv F
  0.166667  0.000000  0.000000    0.00000000  46 t-inv F
  0.200000  0.000000  0.000000    0.00000000  47 t-inv F
  0.233333  0.000000  0.000000    0.00000000  48 t-inv F
  0.266667  0.000000  0.000000    0.00000000  49 t-inv F
  0.300000  0.000000  0.000000    0.00000000  50 t-inv F
  0.333333  0.000000  0.000000    0.00000000  51 t-inv F
  0.366667  0.000000  0.000000    0.00000000  52 t-inv F
  0.400000  0.000000  0.000000    0.00000000  53 t-inv F
  0.433333  0.000000  0.000000    0.00000000  54 t-inv F
  0.466667  0.000000  0.000000    0.00000000  55 t-inv F
  0.500000  0.000000  0.000000    0.00000000  56 t-inv F
 -0.111111  0.000000  0.000000    0.01234568   2 t-inv F
 -0.111111  0.111111  0.000000    0.01234568   2 t-inv F
  0.111111 -0.111111  0.000000    0.01234568   2 t-inv F
  0.000000 -0.111111  0.000000    0.01234568   2 t-inv F
[...]
  0.444444 -0.222222  0.000000    0.01234568  10 t-inv F
  0.222222 -0.444444  0.000000    0.01234568  10 t-inv F
 -0.222222  0.444444  0.000000    0.01234568  10 t-inv F
 -0.333333 -0.222222  0.000000    0.01234568  11 t-inv F
 -0.555556  0.333333  0.000000    0.01234568  11 t-inv F
  0.555556 -0.333333  0.000000    0.01234568  11 t-inv F
  0.222222 -0.555556  0.000000    0.01234568  11 t-inv F
 -0.222222  0.555556  0.000000    0.01234568  11 t-inv F
  0.333333 -0.555556  0.000000    0.01234568  11 t-inv F
 -0.333333  0.555556  0.000000    0.01234568  11 t-inv F
 -0.555556  0.222222  0.000000    0.01234568  11 t-inv F
  0.555556 -0.222222  0.000000    0.01234568  11 t-inv F
  0.222222  0.333333  0.000000    0.01234568  11 t-inv F
 -0.222222 -0.333333  0.000000    0.01234568  11 t-inv F
 -0.333333 -0.333333  0.000000    0.01234568  12 t-inv F

 SYSTEM =  unknown system
 POSCAR =  Ga2 Co1 S4

 Startparameter for this run:
   NWRITE =      2    write-flag & timer
   PREC   = normal    normal or accurate (medium, high low for compatibility)
   ISTART =      0    job   : 0-new  1-cont  2-samecut
   ICHARG =      2    charge: 1-file 2-atom 10-const
   ISPIN  =      2    spin polarized calculation?
   LNONCOLLINEAR =      F non collinear calculations
   LSORBIT =      F    spin-orbit coupling
   INIWAV =      1    electr: 0-lowe 1-rand  2-diag
   LASPH  =      F    aspherical Exc in radial PAW
   METAGGA=      F    non-selfconsistent MetaGGA calc.

 Electronic Relaxation 1
   ENCUT  =  520.0 eV  38.22 Ry    6.18 a.u.   6.62  6.62 53.68*2*pi/ulx,y,z
   ENINI  =  520.0     initial cutoff
   ENAUG  =  477.8 eV  augmentation charge cutoff
   NELM   =     40;   NELMIN=  6; NELMDL=  0     # of ELM steps
   EDIFF  = 0.1E-05   stopping-criterion for ELM
   LREAL  =      F    real-space projection
   NLSPLINE    = F    spline interpolate recip. space projectors
   LCOMPAT=      F    compatible to vasp.4.4
   GGA_COMPAT  = T    GGA compatible to vasp.4.4-vasp.4.6
   LMAXPAW     = -100 max onsite density
   LMAXMIX     =    2 max onsite mixed and CHGCAR
   VOSKOWN=      0    Vosko Wilk Nusair interpolation
   ROPT   =    0.00000   0.00000   0.00000
 Ionic relaxation
   EDIFFG = -.1E-01   stopping-criterion for IOM
   NSW    =      0    number of steps for IOM
   NBLOCK =      1;   KBLOCK =      1    inner block; outer block
   IBRION =     -1    ionic relax: 0-MD 1-quasi-New 2-CG
   NFREE  =      0    steps in history (QN), initial steepest desc. (CG)
   ISIF   =      3    stress and relaxation
   IWAVPR =     10    prediction:  0-non 1-charg 2-wave 3-comb
   ISYM   =      3    0-nonsym 1-usesym 2-fastsym
   LCORR  =      T    Harris-Foulkes like correction to forces

   POTIM  = 0.5000    time-step for ionic-motion
   TEIN   =    0.0    initial temperature
   TEBEG  =    0.0;   TEEND  =   0.0 temperature during run
[...]
 k-point 21 :   0.3333 0.3333 0.0000  plane waves:    8526
 k-point 22 :   0.3333 0.3333 0.0000  plane waves:    8526
 k-point 23 :   0.3148 0.3148 0.0000  plane waves:    8522
 k-point 24 :   0.2963 0.2963 0.0000  plane waves:    8511
 k-point 25 :   0.2778 0.2778 0.0000  plane waves:    8523
 k-point 26 :   0.2593 0.2593 0.0000  plane waves:    8525
 k-point 27 :   0.2407 0.2407 0.0000  plane waves:    8543
 k-point 28 :   0.2222 0.2222 0.0000  plane waves:    8567
 k-point 29 :   0.2037 0.2037 0.0000  plane waves:    8547
 k-point 30 :   0.1852 0.1852 0.0000  plane waves:    8541
 k-point 31 :   0.1667 0.1667 0.0000  plane waves:    8537
 k-point 32 :   0.1481 0.1481 0.0000  plane waves:    8539
 k-point 33 :   0.1296 0.1296 0.0000  plane waves:    8541
 k-point 34 :   0.1111 0.1111 0.0000  plane waves:    8549
 k-point 35 :   0.0926 0.0926 0.0000  plane waves:    8573
 k-point 36 :   0.0741 0.0741 0.0000  plane waves:    8601
 k-point 37 :   0.0556 0.0556 0.0000  plane waves:    8631
 k-point 38 :   0.0370 0.0370 0.0000  plane waves:    8631
 k-point 39 :   0.0185 0.0185 0.0000  plane waves:    8609
 k-point 40 :   0.0000 0.0000 0.0000  plane waves:    8603
 k-point 41 :   0.0000 0.0000 0.0000  plane waves:    8603
 k-point 42 :   0.0333 0.0000 0.0000  plane waves:    8609
 k-point 43 :   0.0667 0.0000 0.0000  plane waves:    8617
 k-point 44 :   0.1000 0.0000 0.0000  plane waves:    8611
 k-point 45 :   0.1333 0.0000 0.0000  plane waves:    8601
 k-point 46 :   0.1667 0.0000 0.0000  plane waves:    8563
 k-point 47 :   0.2000 0.0000 0.0000  plane waves:    8555
 k-point 48 :   0.2333 0.0000 0.0000  plane waves:    8569
 k-point 49 :   0.2667 0.0000 0.0000  plane waves:    8535
 k-point 50 :   0.3000 0.0000 0.0000  plane waves:    8534
 k-point 51 :   0.3333 0.0000 0.0000  plane waves:    8518
 k-point 52 :   0.3667 0.0000 0.0000  plane waves:    8498
 k-point 53 :   0.4000 0.0000 0.0000  plane waves:    8518
 k-point 54 :   0.4333 0.0000 0.0000  plane waves:    8504
 k-point 55 :   0.4667 0.0000 0.0000  plane waves:    8484
 k-point 56 :   0.5000 0.0000 0.0000  plane waves:    8490

 maximum and minimum number of plane-waves per node :      8631     8484

 maximum number of plane-waves:      8631
 maximum index in each direction:
   IXMAX=    6   IYMAX=    6   IZMAX=   53
   IXMIN=   -7   IYMIN=   -6   IZMIN=  -53

 serial   3D FFT for wavefunctions
 parallel 3D FFT for charge:
    minimum data exchange during FFTs selected (reduces bandwidth)

 Radii for the augmentation spheres in the non-local exchange
 for species   1 augmentation radius   1.596 (default was   1.277)
       energy cutoff for augmentation   2080.0
 for species   2 augmentation radius   1.307 (default was   1.045)
       energy cutoff for augmentation   2080.0
 for species   3 augmentation radius   1.212 (default was   0.970)
       energy cutoff for augmentation   2080.0
 Maximum index for augmentation-charges in exchange         3483
  SETUP_FOCK is finished

 Broyden mixing: mesh for mixing (old mesh)
   NGX = 13   NGY = 13   NGZ =107
  (NGX  = 40   NGY  = 40   NGZ  =324)
  gives a total of  18083 points

 initial charge density was supplied:
 charge density of overlapping atoms calculated
 number of electron      39.0000000 magnetization       7.0000000
 charge density for first step will be calculated from the start-wavefunctions

 Maximum index for augmentation-charges          437 (set IRDMAX)

 First call to EWALD:  gamma=   0.260
 Maximum number of real-space cells 5x 5x 1
 Maximum number of reciprocal cells 2x 2x10

--------------------------------------- Iteration      1(   1)  ---------------------------------------

 eigenvalue-minimisations  : 35840
 total energy-change (2. order) : 0.1137395E+03  (-0.2353388E+04)
 number of electron      39.0000000 magnetization       7.0000000
 augmentation part       39.0000000 magnetization       7.0000000

 Free energy of the ion-electron system (eV)
  alpha Z        PSCENC =        32.81390211
  Ewald energy   TEWEN  =     11524.67585812
  -Hartree energ DENC   =    -13385.01819231
  -exchange      EXHF   =         0.00000000
  -V(xc)+E(xc)   XCENC  =        20.23219870
  PAW double counting   =      1719.45456767    -1721.01293944
  entropy T*S    EENTRO =        -0.00160005
  eigenvalues    EBANDS =      -100.16784282
  atomic energy  EATOM  =      2022.76351004
  free energy    TOTEN  =       113.73946204 eV

  energy without entropy =      113.74106209  energy(sigma->0) =      113.74026206
  exchange ACFDT corr.  =         0.00000000  see jH, gK, PRB 81, 115126

[...]

 eigenvalue-minimisations  : 53760
 total energy-change (2. order) :-0.8770612E+02  (-0.8754868E+02)
 number of electron      39.0000000 magnetization       7.0000000
 augmentation part       39.0000000 magnetization       7.0000000

[...]

--------------------------------------- Iteration      1(  24)  ---------------------------------------

 eigenvalue-minimisations  :     0
 total energy-change (2. order) :-0.8757306E-06  (-0.6293811E-06)
 number of electron      38.9999952 magnetization       1.0000000
 augmentation part        1.0393921 magnetization       0.9433899

 Free energy of the ion-electron system (eV)
  alpha Z        PSCENC =        32.81390211
  Ewald energy   TEWEN  =     11524.67585812
  -Hartree energ DENC   =    -13418.46173935
  -exchange      EXHF   =        72.52233986
  -V(xc)+E(xc)   XCENC  =        21.17022905
  PAW double counting   =      4398.03332448    -4401.03008847
  entropy T*S    EENTRO =        -0.00041025
  eigenvalues    EBANDS =      -295.98754344
  atomic energy  EATOM  =      2022.76351004
  free energy    TOTEN  =       -43.50078434 eV

  energy without entropy =      -43.50037409  energy(sigma->0) =      -43.50057921
  exchange ACFDT corr.  =        -0.00112398  see jH, gK, PRB 81, 115126

  average scaling for gradient   1.0111

 average (electrostatic) potential at core
  the test charge radii are     1.2767  1.0452  0.9698
  (the norm of the test charge is              1.0000)
       1 -15.8310       2 -15.8310       3 -82.4023       4 -89.0838       5 -89.0838
       6 -89.6136       7 -89.6136

 E-fermi :  -0.6986     XC(G=0):  -3.6687     alpha+bet : -4.2391

 spin component 1

 k-point     1 :       0.0000    0.0000    0.0000
  band No.  band energies     occupation
      1     -18.0242      1.00000
      2     -17.8008      1.00000
      3     -17.3406      1.00000
      4     -15.2785      1.00000
      5      -9.4338      1.00000
      6      -7.7446      1.00000
      7      -6.4418      1.00000
      8      -6.4418      1.00000
      9      -5.7885      1.00000
     10      -3.9719      1.00000
     11      -3.9719      1.00000
     12      -3.8205      1.00000
     13      -3.8204      1.00000
     14      -3.7941      1.00000
     15      -3.7941      1.00000
     16      -3.4863      1.00000
     17      -3.0611      1.00000
     18      -2.1429      1.00000
     19      -2.1429      1.00000
     20       0.5604      0.00000
     21       0.5605      0.00000
     22       0.8634      0.00000
     23       1.0862      0.00000
     24       3.3127      0.00000
     25       3.5706      0.00000
     26       3.7355      0.00000
     27       3.8660      0.00000
     28       4.3612      0.00000
     29       4.3612      0.00000
     30       4.3696      0.00000
     31       4.4047      0.00000
     32       4.4047      0.00000
     33       4.5859      0.00000
     34       5.2468      0.00000
     35       5.8861      0.00000
     36       6.7669      0.00000
     37       6.9754      0.00000
     38       7.0904      0.00000
     39       7.0904      0.00000
     40       8.1260      0.00000
     41       9.4905      0.00000
     42       9.5020      0.00000
     43       9.5020      0.00000
     44       9.7536      0.00000
     45       9.7536      0.00000
     46      10.2067      0.00000
     47      10.2067      0.00000
     48      10.2477      0.00000
     49      10.3300      0.00000
     50      10.8828      0.00000
     51      11.8764      0.00000
     52      11.8765      0.00000
     53      12.2312      0.00000
     54      12.5901      0.00000
     55      13.0119      0.00000
     56      13.0935      0.00000
     57      13.1102      0.00000
     58      13.1102      0.00000
     59      14.2802      0.00000
     60      14.6624      0.00000
[...]
    146      29.5610      0.00000
    147      29.6007      0.00000
    148      29.6346      0.00000
    149      29.9310      0.00000
    150      30.1197      0.00000
    151      30.1198      0.00000
    152      30.1401      0.00000
    153      30.2718      0.00000
    154      30.2719      0.00000
    155      31.1078      0.00000
    156      31.1079      0.00000
    157      31.6662      0.00000
    158      31.6663      0.00000
    159      31.7703      0.00000
    160      31.7705      0.00000

[...]

 spin component 2

[...]

 k-point    56 :       0.5000    0.0000    0.0000
  band No.  band energies     occupation
      1     -16.2377      1.00000
      2     -16.1466      1.00000
      3     -15.9263      1.00000
      4     -15.5437      1.00000
      5     -10.0346      1.00000
      6      -9.9235      1.00000
      7      -8.4961      1.00000
      8      -7.1954      1.00000
      9      -6.0423      1.00000
     10      -5.4185      1.00000
     11      -5.3891      1.00000
     12      -5.2688      1.00000
     13      -5.2060      1.00000
     14      -4.7337      1.00000
     15      -4.1221      1.00000
     16      -4.0538      1.00000
     17      -2.7789      1.00000
     18      -2.6559      1.00000
     19      -2.6317      1.00000
     20       1.0508      0.00000
     21       1.1172      0.00000
     22       1.5587      0.00000
     23       1.7134      0.00000
     24       2.9714      0.00000
     25       3.5407      0.00000
     26       4.0394      0.00000
     27       5.2171      0.00000
     28       5.2778      0.00000
     29       5.5667      0.00000
     30       6.2078      0.00000
     31       6.3764      0.00000
     32       7.0341      0.00000
     33       7.1070      0.00000
     34       7.3996      0.00000
     35       7.5230      0.00000
     36       8.0299      0.00000
     37       8.0924      0.00000
     38       8.3734      0.00000
     39       8.5829      0.00000
     40       9.2224      0.00000
     41       9.3250      0.00000
     42       9.5711      0.00000
     43       9.9312      0.00000
     44      10.0294      0.00000
     45      10.5627      0.00000
     46      10.9461      0.00000
     47      11.1242      0.00000
     48      11.3599      0.00000
     49      11.6585      0.00000
     50      12.0221      0.00000
     51      12.2361      0.00000
     52      12.6957      0.00000
     53      12.7050      0.00000
     54      13.1245      0.00000
     55      13.1837      0.00000
     56      13.2823      0.00000
     57      13.5434      0.00000
     58      13.6790      0.00000
     59      13.7553      0.00000
     60      13.9177      0.00000
[...]
    146      31.4945      0.00000
    147      31.5136      0.00000
    148      31.5236      0.00000
    149      31.6363      0.00000
    150      31.6645      0.00000
    151      31.7739      0.00000
    152      31.8253      0.00000
    153      31.8495      0.00000
    154      31.9575      0.00000
    155      32.0162      0.00000
    156      32.1521      0.00000
    157      32.1603      0.00000
    158      32.3696      0.00000
    159      32.4304      0.00000
    160      32.4589      0.00000

 soft charge-density along one line, spin component           1
         0         1         2         3         4         5         6         7         8         9
 total charge-density along one line

 soft charge-density along one line, spin component           2
         0         1         2         3         4         5         6         7         8         9
 total charge-density along one line

------------------------ aborting loop because EDIFF is reached ----------------------------------------

 total charge

# of ion       s       p       d       tot
    1        1.087   1.247   0.233   2.567
    2        1.087   1.247   0.233   2.567
    3        0.383   0.516   7.426   8.325
    4        1.342   2.357   0.000   3.698
    5        1.342   2.357   0.000   3.698
    6        1.337   2.389   0.000   3.726
    7        1.337   2.389   0.000   3.726
tot          7.914  12.503   7.891  28.308

 magnetization (x)

[...]

         DFTD3 V3.0 Rev 1
 IVDW         = 11
 DF pbesol
 parameters
 VDW_S6       =    1.0000
 VDW_S8       =    0.6120
 VDW_SR       =    1.3450
 rs18     =    1.0000
 alpha6   =   14.0000
 alpha8   =   16.0000
 k1-k3    =   16.0000    1.3333   -4.0000
 VDW_RADIUS   =   50.2022 A
 VDW_CNRADIUS =   21.1671 A
 Edisp (eV)   -1.07892

 E6    (eV) :    -0.3882
 E8    (eV) :    -0.6908
 % E8        : 64.02

  FORCE on cell =-STRESS in cart. coord.  units (eV):
  Direction    XX          YY          ZZ          XY          YZ          ZX
  Alpha Z    32.81390    32.81390    32.81390
  Ewald   12800.27761 12800.27733-14075.88002    -0.00013    -0.00023     0.00019
  Hartree 13210.30068 13210.30070-13002.09720     0.00001    -0.00001    -0.00001
  E(xc)    -115.76723  -115.76723  -116.53856    -0.00000    -0.00000     0.00001
  Local  -26717.44805-26717.44822 26369.66422    -0.00008     0.00019    -0.00013
  n-local   333.31200   334.39392   333.59972    -2.92919    -0.63603    -0.65847
  augment    86.24145    86.24178    88.25896     0.00027     0.00001    -0.00003
  Kinetic   432.37148   438.98289   434.41886    -5.19452    -0.07408     1.20723
  Fock            NaN         NaN         NaN         NaN         NaN         NaN
  vdW        -1.17325    -1.17325    -1.20254     0.00000    -0.00000    -0.00000
  Total           NaN         NaN         NaN         NaN         NaN         NaN
  in kB           NaN         NaN         NaN         NaN         NaN         NaN

 VOLUME and BASIS-vectors are now :
  energy-cutoff  :      520.00
  volume of cell :      316.88
      direct lattice vectors                 reciprocal lattice vectors
     3.560145166  0.000000000  0.000000000     0.280887423  0.162170389  0.000000000
    -1.780072583  3.083176921  0.000000000     0.000000000  0.324340778  0.000000000
     0.000000000  0.000000000 28.868563000     0.000000000  0.000000000  0.034639757

  length of vectors
     3.560145166  3.560145830 28.868563000     0.324340838  0.324340778  0.034639757

 FORCES acting on ions:
    Electron-Ion                     Ewald-Force                    Non-Local-Force
   0.198E-04 -.202E-04 -.417E+03   0.107E-03 -.476E-04 0.416E+03   0.120E-16 -.272E-17 0.280E+00
   -.198E-04 0.202E-04 0.417E+03   -.107E-03 0.476E-04 -.416E+03   -.253E-17 -.366E-17 -.280E+00
   0.634E-08 -.785E-09 0.260E-07   0.434E-15 0.265E-13 -.568E-13   -.766E-22 0.147E-21 -.944E-22
   -.780E-03 0.419E-03 0.471E+03   -.209E-03 0.158E-03 -.467E+03   -.104E-16 0.268E-17 -.485E+01
   0.780E-03 -.419E-03 -.471E+03   0.209E-03 -.158E-03 0.467E+03   -.687E-17 0.167E-17 0.485E+01
   -.916E-03 0.535E-03 -.100E+04   -.109E-03 0.476E-04 0.101E+04   0.905E-16 0.625E-17 -.505E+01
   0.916E-03 -.535E-03 0.100E+04   0.109E-03 -.476E-04 -.101E+04   -.598E-16 0.482E-17 0.505E+01
   -.791E-05 0.154E-04 0.692E-04   0.459E-14 0.322E-13 0.114E-12   0.229E-16 0.906E-17 0.000E+00

 POSITION                                       TOTAL-FORCE (eV/Angst)
     -0.00000      2.05545     17.74970              NaN           NaN           NaN
      1.78007      1.02772     11.11886              NaN           NaN           NaN
      0.00000      0.00000     14.43428              NaN           NaN           NaN
      1.78007      1.02772     13.38319              NaN           NaN           NaN
     -0.00000      2.05545     15.48537              NaN           NaN           NaN
      1.78007      1.02772     18.83975              NaN           NaN           NaN
     -0.00000      2.05545     10.02881              NaN           NaN           NaN
    total drift:                                     NaN           NaN           NaN

  FREE ENERGIE OF THE ION-ELECTRON SYSTEM (eV)
  free  energy   TOTEN  =       -44.57970094 eV

  energy  without entropy=      -44.57929069  energy(sigma->0) =      -44.57949582

 total charge

[...]

 magnetization (x)

# of ion       s       p       d       tot
    1        0.010   0.007   0.000   0.017
    2        0.010   0.007   0.000   0.017
    3        0.006   0.007   1.153   1.166
    4        0.017  -0.111   0.000  -0.095
    5        0.017  -0.111   0.000  -0.095
    6        0.000   0.006   0.000   0.006
    7        0.000   0.006   0.000   0.006
tot          0.061  -0.190   1.153   1.024