 vasp.5.4.4.18Apr17-6-g9f103f2a35 (build Aug 01 2018 12:10:22) complex

 executed on        TETRALITH-B01 date 2021.12.16  03:06:29

 INCAR:
 POTCAR:    PAW_PBE Ga 08Apr2002
 POTCAR:    PAW_PBE Co 02Aug2007
 POTCAR:    PAW_PBE S 06Sep2000

 POTCAR:    PAW_PBE Ga 08Apr2002
   VRHFIN =Ga: s2p1

   TITEL  = PAW_PBE Ga 08Apr2002
   POMASS =   69.723; ZVAL   =    3.000    mass and valenz
   ENMAX  =  134.678; ENMIN  =  101.009 eV

 POTCAR:    PAW_PBE Co 02Aug2007
   VRHFIN =Co: d8 s1

   TITEL  = PAW_PBE Co 02Aug2007
   POMASS =   58.933; ZVAL   =    9.000    mass and valenz
   ENMAX  =  267.968; ENMIN  =  200.976 eV

 POTCAR:    PAW_PBE S 06Sep2000
   VRHFIN =S : s2p4

   TITEL  = PAW_PBE S 06Sep2000
   POMASS =   32.066; ZVAL   =    6.000    mass and valenz
   ENMAX  =  258.689; ENMIN  =  194.016 eV

  PAW_PBE Ga 08Apr2002                  :
  PAW_PBE Co 02Aug2007                  :
  PAW_PBE S 06Sep2000                   :

 POSCAR: Ga2 Co1 S4
  positions in direct lattice
  velocities in cartesian coordinates
 exchange correlation table for  LEXCH =       14
   RHO(1)=    0.500       N(1)  =     2000
   RHO(2)=  100.500       N(2)  =     4000

 ion  position               nearest neighbor table
   1  0.333  0.667  0.615-   5 2.26   6 2.33   6 2.33   6 2.33
   2  0.667  0.333  0.385-   4 2.26   7 2.33   7 2.33   7 2.33
   3  0.000  0.000  0.500-   4 2.31   5 2.31   4 2.31   5 2.31   4 2.31   5 2.31
   4  0.667  0.333  0.464-   2 2.26   3 2.31   3 2.31   3 2.31
   5  0.333  0.667  0.536-   1 2.26   3 2.31   3 2.31   3 2.31
   6  0.667  0.333  0.653-   1 2.33   1 2.33   1 2.33
   7  0.333  0.667  0.347-   2 2.33   2 2.33   2 2.33

  LATTYP: Found a hexagonal cell.
 ALAT       =     3.5601458298
 C/A-ratio  =     8.1088147452

  Lattice vectors:

 A1 = (   3.5601451665,   0.0000000000,   0.0000000000)
 A2 = (  -1.7800725832,   3.0831769213,   0.0000000000)
 A3 = (   0.0000000000,   0.0000000000,  28.8685630000)

Analysis of symmetry for initial positions (statically):
 Subroutine PRICEL returns:
 Original cell was already a primitive cell.

 Routine SETGRP: Setting up the symmetry group for a
 hexagonal supercell.

 Subroutine GETGRP returns: Found 12 space group operations
 (whereof 12 operations were pure point group operations)
 out of a pool of 24 trial point group operations.

The static configuration has the point symmetry D_3d.

Analysis of symmetry for dynamics (positions and initial velocities):
 Subroutine PRICEL returns:
 Original cell was already a primitive cell.

[...]

The dynamic configuration has the point symmetry D_3d.

Analysis of structural, dynamic, and magnetic symmetry:
 Subroutine PRICEL returns:
 Original cell was already a primitive cell.

 Routine SETGRP: Setting up the symmetry group for a
 hexagonal supercell.

 Subroutine GETGRP returns: Found 12 space group operations
 (whereof 12 operations were pure point group operations)
 out of a pool of 24 trial point group operations.

The magnetic configuration has the point symmetry D_3d.

 Subroutine INISYM returns: Found 12 space group operations
 (whereof 12 operations are pure point group operations),
 and found     1 'primitive' translations

 KPOINTS: K-Path Generated by VASPKIT.
  interpolating k-points between supplied coordinates
  k-points in reciprocal lattice
Space group operators:
 irot       det(A)        alpha          n_x          n_y          n_z        tau_x        tau_y        tau_z
    1     1.000000     0.000000     1.000000     0.000000     0.000000     0.000000     0.000000     0.000000
    2    -1.000000     0.000000     1.000000     0.000000     0.000000     0.000000     0.000000     0.000000
    3     1.000000   120.000000     0.000000     0.000000    -1.000000     0.000000     0.000000     0.000000
    4    -1.000000   120.000000     0.000000     0.000000    -1.000000     0.000000     0.000000     0.000000
    5     1.000000   120.000000     0.000000     0.000000     1.000000     0.000000     0.000000     0.000000
    6    -1.000000   120.000000     0.000000     0.000000     1.000000     0.000000     0.000000     0.000000
    7     1.000000   180.000000     1.000000    -0.000000     0.000000     0.000000     0.000000     0.000000
    8    -1.000000   180.000000     1.000000    -0.000000     0.000000     0.000000     0.000000     0.000000
    9     1.000000   180.000000     0.500000    -0.866025     0.000000     0.000000     0.000000     0.000000
   10    -1.000000   180.000000     0.500000    -0.866025     0.000000     0.000000     0.000000     0.000000
   11     1.000000   180.000000    -0.500000    -0.866025     0.000000     0.000000     0.000000     0.000000
   12    -1.000000   180.000000    -0.500000    -0.866025     0.000000     0.000000     0.000000     0.000000

 SYSTEM =  unknown system
 POSCAR =  Ga2 Co1 S4

 Startparameter for this run:
   NWRITE =      2    write-flag & timer
   PREC   = normal    normal or accurate (medium, high low for compatibility)
   ISTART =      0    job   : 0-new  1-cont  2-samecut
   ICHARG =      2    charge: 1-file 2-atom 10-const
   ISPIN  =      2    spin polarized calculation?
   LNONCOLLINEAR =      F non collinear calculations
   LSORBIT =      F    spin-orbit coupling
   INIWAV =      1    electr: 0-lowe 1-rand  2-diag
   LASPH  =      F    aspherical Exc in radial PAW
   METAGGA=      F    non-selfconsistent MetaGGA calc.

 Electronic Relaxation 1
   ENCUT  =  520.0 eV  38.22 Ry    6.18 a.u.   6.62  6.62 53.68*2*pi/ulx,y,z
   ENINI  =  520.0     initial cutoff
   ENAUG  =  477.8 eV  augmentation charge cutoff
   NELM   =     40;   NELMIN=  6; NELMDL=  0     # of ELM steps
   EDIFF  = 0.1E-05   stopping-criterion for ELM
   LREAL  =      F    real-space projection
   NLSPLINE    = F    spline interpolate recip. space projectors
   LCOMPAT=      F    compatible to vasp.4.4
   GGA_COMPAT  = T    GGA compatible to vasp.4.4-vasp.4.6
   LMAXPAW     = -100 max onsite density
   LMAXMIX     =    2 max onsite mixed and CHGCAR
   VOSKOWN=      0    Vosko Wilk Nusair interpolation
   ROPT   =    0.00000   0.00000   0.00000
 Ionic relaxation
   EDIFFG = -.1E-01   stopping-criterion for IOM
   NSW    =      0    number of steps for IOM
   NBLOCK =      1;   KBLOCK =      1    inner block; outer block
   IBRION =     -1    ionic relax: 0-MD 1-quasi-New 2-CG
   NFREE  =      0    steps in history (QN), initial steepest desc. (CG)
   ISIF   =      3    stress and relaxation
   IWAVPR =     10    prediction:  0-non 1-charg 2-wave 3-comb
   ISYM   =      2    0-nonsym 1-usesym 2-fastsym
   LCORR  =      T    Harris-Foulkes like correction to forces

   POTIM  = 0.5000    time-step for ionic-motion
   TEIN   =    0.0    initial temperature
   TEBEG  =    0.0;   TEEND  =   0.0 temperature during run
   SMASS  =  -3.00    Nose mass-parameter (am)
   estimated Nose-frequenzy (Omega)   =  0.10E-29 period in steps =****** mass=  -0.290E-27a.u.
   SCALEE = 1.0000    scale energy and forces
   NPACO  =    256;   APACO  = 16.0  distance and # of slots for P.C.
   PSTRESS=    0.0 pullay stress

  Mass of Ions in am
   POMASS =  69.72 58.93 32.07
  Ionic Valenz
   ZVAL   =   3.00  9.00  6.00
  Atomic Wigner-Seitz radii
  virtual crystal weights
   VCA    =   1.00  1.00  1.00
   NELECT =      39.0000    total number of electrons
   NUPDOWN=      -1.0000    fix difference up-down

 DOS related values:
   EMIN   =  10.00;   EMAX   =-10.00  energy-range for DOS
   EFERMI =   0.00
   ISMEAR =     0;   SIGMA  =   0.02  broadening in eV -4-tet -1-fermi 0-gaus

 Electronic relaxation 2 (details)
   IALGO  =     38    algorithm
   LDIAG  =      T    sub-space diagonalisation (order eigenvalues)
   LSUBROT=      F    optimize rotation matrix (better conditioning)
   TURBO    =      0    0=normal 1=particle mesh
   IRESTART =      0    0=no restart 2=restart with 2 vectors
   NREBOOT  =      0    no. of reboots
   NMIN     =      0    reboot dimension
   EREF     =   0.00    reference energy to select bands
   IMIX   =      4    mixing-type and parameters
     AMIX     =   0.40;   BMIX     =  1.00
     AMIX_MAG =   1.60;   BMIX_MAG =  1.00
     AMIN     =   0.10
     WC   =   100.;   INIMIX=   1;  MIXPRE=   1;  MAXMIX= -45

 Intra band minimization:
   WEIMIN = 0.0000     energy-eigenvalue tresh-hold
   EBREAK =  0.20E-08  absolut break condition
   DEPER  =   0.30     relativ break condition

   TIME   =   0.40     timestep for ELM

  volume/ion in A,a.u.               =      45.27       305.48
  Fermi-wavevector in a.u.,A,eV,Ry     =   0.814328  1.538856  9.022428  0.663130
  Thomas-Fermi vector in A             =   1.924215

 Write flags
   LWAVE        =      F    write WAVECAR
   LDOWNSAMPLE  =      F    k-point downsampling of WAVECAR
   LCHARG       =      F    write CHGCAR
   LVTOT        =      F    write LOCPOT, total local potential
   LVHAR        =      F    write LOCPOT, Hartree potential only
   LELF         =      F    write electronic localiz. function (ELF)
   LORBIT       =     11    0 simple, 1 ext, 2 COOP (PROOUT), +10 PAW based schemes

 Dipole corrections
   LMONO  =      F    monopole corrections only (constant potential shift)
   LDIPOL =      F    correct potential (dipole corrections)
   IDIPOL =      0    1-x, 2-y, 3-z, 4-all directions
   EPSILON=  1.0000000 bulk dielectric constant

 Exchange correlation treatment:
   GGA     =    PS    GGA type
   VOSKOWN=      0    Vosko Wilk Nusair interpolation
   LHFCALC =     F    Hartree Fock is set to
   LHFONE  =     F    Hartree Fock one center treatment
   AEXX    =    0.0000 exact exchange contribution

 Linear response parameters
   LEPSILON=     F    determine dielectric tensor
   LRPA    =     F    only Hartree local field effects (RPA)
   LNABLA  =     F    use nabla operator in PAW spheres
   LVEL    =     F    velocity operator in full k-point grid
   LINTERFAST=   F  fast interpolation
   KINTER  =     0    interpolate to denser k-point grid
   CSHIFT  =0.1000    complex shift for real part using Kramers Kronig
   OMEGAMAX=  -1.0    maximum frequency
   DEG_THRESHOLD= 0.2000000E-02 threshold for treating states as degnerate
   RTIME   =   -0.100 relaxation time in fs
  (WPLASMAI=    0.000 imaginary part of plasma frequency in eV, 0.658/RTIME)
   DFIELD  = 0.0000000 0.0000000 0.0000000 field for delta impulse in time

 Orbital magnetization related:
   ORBITALMAG=     F  switch on orbital magnetization
   LCHIMAG   =     F  perturbation theory with respect to B field
   DQ        =  0.001000  dq finite difference perturbation B field
   LLRAUG    =     F  two centre corrections for induced B field

 Static calculation
 charge density and potential will be updated during run
 spin polarized calculation
 Variant of blocked Davidson
 Davidson routine will perform the subspace rotation
 perform sub-space diagonalisation
    after iterative eigenvector-optimisation
 modified Broyden-mixing scheme, WC =      100.0
 initial mixing is a Kerker type mixing with AMIX =  0.4000 and BMIX =      1.0000
 Hartree-type preconditioning will be used
 using additional bands          108
 reciprocal scheme for non local part
 use partial core corrections
 calculate Harris-corrections to forces
[...]
 k-point 27 :   0.2281 0.2281 0.0000  plane waves:    8553
 k-point 28 :   0.2105 0.2105 0.0000  plane waves:    8555
 k-point 29 :   0.1930 0.1930 0.0000  plane waves:    8529
 k-point 30 :   0.1754 0.1754 0.0000  plane waves:    8537
 k-point 31 :   0.1579 0.1579 0.0000  plane waves:    8539
 k-point 32 :   0.1404 0.1404 0.0000  plane waves:    8531
 k-point 33 :   0.1228 0.1228 0.0000  plane waves:    8541
 k-point 34 :   0.1053 0.1053 0.0000  plane waves:    8561
 k-point 35 :   0.0877 0.0877 0.0000  plane waves:    8577
 k-point 36 :   0.0702 0.0702 0.0000  plane waves:    8605
 k-point 37 :   0.0526 0.0526 0.0000  plane waves:    8627
 k-point 38 :   0.0351 0.0351 0.0000  plane waves:    8627
 k-point 39 :   0.0175 0.0175 0.0000  plane waves:    8605
 k-point 40 :  -0.0000-0.0000 0.0000  plane waves:    8603
 k-point 41 :   0.0000 0.0000 0.0000  plane waves:    8603
 k-point 42 :   0.0263 0.0000 0.0000  plane waves:    8625
 k-point 43 :   0.0526 0.0000 0.0000  plane waves:    8615
 k-point 44 :   0.0789 0.0000 0.0000  plane waves:    8607
 k-point 45 :   0.1053 0.0000 0.0000  plane waves:    8607
 k-point 46 :   0.1316 0.0000 0.0000  plane waves:    8601
 k-point 47 :   0.1579 0.0000 0.0000  plane waves:    8583
 k-point 48 :   0.1842 0.0000 0.0000  plane waves:    8559
 k-point 49 :   0.2105 0.0000 0.0000  plane waves:    8555
 k-point 50 :   0.2368 0.0000 0.0000  plane waves:    8557
 k-point 51 :   0.2632 0.0000 0.0000  plane waves:    8543
 k-point 52 :   0.2895 0.0000 0.0000  plane waves:    8532
 k-point 53 :   0.3158 0.0000 0.0000  plane waves:    8522
 k-point 54 :   0.3421 0.0000 0.0000  plane waves:    8520
 k-point 55 :   0.3684 0.0000 0.0000  plane waves:    8500
 k-point 56 :   0.3947 0.0000 0.0000  plane waves:    8512
 k-point 57 :   0.4211 0.0000 0.0000  plane waves:    8506
 k-point 58 :   0.4474 0.0000 0.0000  plane waves:    8512
 k-point 59 :   0.4737 0.0000 0.0000  plane waves:    8474
 k-point 60 :   0.5000 0.0000 0.0000  plane waves:    8490

 maximum and minimum number of plane-waves per node :      8627     8474

 maximum number of plane-waves:      8627
 maximum index in each direction:
   IXMAX=    6   IYMAX=    6   IZMAX=   53
   IXMIN=   -7   IYMIN=   -6   IZMIN=  -53

 serial   3D FFT for wavefunctions
 parallel 3D FFT for charge:
    minimum data exchange during FFTs selected (reduces bandwidth)

 Broyden mixing: mesh for mixing (old mesh)
   NGX = 13   NGY = 13   NGZ =107
  (NGX  = 40   NGY  = 40   NGZ  =324)
  gives a total of  18083 points

 initial charge density was supplied:
 charge density of overlapping atoms calculated
 number of electron      39.0000000 magnetization       7.0000000
 keeping initial charge density in first step

 Maximum index for augmentation-charges          437 (set IRDMAX)

 First call to EWALD:  gamma=   0.260
 Maximum number of real-space cells 5x 5x 1
 Maximum number of reciprocal cells 2x 2x10

--------------------------------------- Iteration      1(   1)  ---------------------------------------

 eigenvalue-minimisations  : 30720
 total energy-change (2. order) : 0.7333822E+02  (-0.1699327E+04)
 number of electron      39.0000000 magnetization       7.0000000
 augmentation part       39.0000000 magnetization       7.0000000

 Free energy of the ion-electron system (eV)
  alpha Z        PSCENC =        32.81390211
  Ewald energy   TEWEN  =     11524.67585812
  -Hartree energ DENC   =    -13385.01819231
  -exchange      EXHF   =         0.00000000
  -V(xc)+E(xc)   XCENC  =        30.69888652
  PAW double counting   =      1711.68586003    -1704.53122651
  entropy T*S    EENTRO =        -0.00025304
  eigenvalues    EBANDS =      -171.38811308
  atomic energy  EATOM  =      2034.40150045
  Solvation  Ediel_sol  =         0.00000000
  free energy    TOTEN  =        73.33822230 eV

  energy without entropy =       73.33847534  energy(sigma->0) =       73.33834882

[...]

 eigenvalue-minimisations  : 46080
 total energy-change (2. order) :-0.1082903E+03  (-0.1081931E+03)
 number of electron      39.0000000 magnetization       7.0000000
 augmentation part       39.0000000 magnetization       7.0000000

[...]

 Broyden mixing:
  rms(total) = 0.21952E+01    rms(broyden)= 0.21951E+01
  rms(prec ) = 0.22287E+01
  weight for this iteration     100.00

[...]

 eigenvalues of (default mixing * dielectric matrix)
  average eigenvalue GAMMA=   0.3937
  0.3937

[...]

 eigenvalue-minimisations  : 59648
 total energy-change (2. order) : 0.6564187E+00  (-0.1716277E+00)
 number of electron      38.9999956 magnetization       5.3667734
 augmentation part        0.6180169 magnetization       4.8809738

[...]

 Broyden mixing:
  rms(total) = 0.87667E-05    rms(broyden)= 0.85998E-05
  rms(prec ) = 0.10234E-04
  weight for this iteration     100.00

 eigenvalues of (default mixing * dielectric matrix)
  average eigenvalue GAMMA=   2.3858
 13.8190  9.8963  6.8152  4.6574  3.8689  3.0943  2.4632  2.4632  1.9700  1.4964
  1.4964  1.2062  1.2062  0.3495  0.9767  0.9370  0.8941  0.8941  0.7568  0.7180
  0.7180  0.6663  0.5817  0.6263  0.6263  0.6091  0.6091

[...]

--------------------------------------- Iteration      1(  33)  ---------------------------------------

 eigenvalue-minimisations  : 46208
 total energy-change (2. order) :-0.9220148E-06  (-0.6697116E-09)
 number of electron      38.9999954 magnetization       1.0000015
 augmentation part        0.9444021 magnetization       0.6512522

 Free energy of the ion-electron system (eV)
  alpha Z        PSCENC =        32.81390211
  Ewald energy   TEWEN  =     11524.67585812
  -Hartree energ DENC   =    -13413.33869331
  -exchange      EXHF   =         0.00000000
  -V(xc)+E(xc)   XCENC  =        31.51902196
  PAW double counting   =      3819.90347189    -3813.37627901
  entropy T*S    EENTRO =        -0.00024891
  eigenvalues    EBANDS =      -251.39964823
  atomic energy  EATOM  =      2034.40150045
  Solvation  Ediel_sol  =         0.00000000
  free energy    TOTEN  =       -34.80111492 eV

  energy without entropy =      -34.80086601  energy(sigma->0) =      -34.80099047

 average (electrostatic) potential at core
  the test charge radii are     1.2767  1.0452  0.9698
  (the norm of the test charge is              1.0000)
       1 -18.7750       2 -18.7750       3 -88.6300       4 -92.8825       5 -92.8825
       6 -92.9930       7 -92.9930

 E-fermi :  -0.3605     XC(G=0):  -4.4155     alpha+bet : -4.2391

 spin component 1

 k-point     1 :       0.5000    0.0000    0.0000
  band No.  band energies     occupation
      1     -14.4136      1.00000
      2     -14.2411      1.00000
      3     -14.0901      1.00000
      4     -13.8540      1.00000
      5      -8.8773      1.00000
      6      -8.7763      1.00000
      7      -7.5007      1.00000
      8      -6.3455      1.00000
      9      -5.2141      1.00000
     10      -4.9939      1.00000
     11      -4.6883      1.00000
     12      -4.5666      1.00000
     13      -4.3729      1.00000
     14      -4.1967      1.00000
     15      -3.9786      1.00000
     16      -3.3624      1.00000
     17      -2.2457      1.00000
     18      -1.9595      1.00000
     19      -1.9468      1.00000
     20      -0.7412      1.00000
     21       0.4316      0.00000
     22       0.6167      0.00000
     23       0.8070      0.00000
     24       1.1879      0.00000
     25       2.0470      0.00000
     26       3.3716      0.00000
     27       4.5660      0.00000
     28       4.6550      0.00000
     29       4.8362      0.00000
     30       5.3531      0.00000
     31       5.8146      0.00000
     32       6.4975      0.00000
     33       6.7564      0.00000
     34       7.1825      0.00000
     35       7.3443      0.00000
     36       7.9906      0.00000
     37       8.0323      0.00000
     38       8.2102      0.00000
     39       8.4377      0.00000
     40       8.9967      0.00000
     41       9.0210      0.00000
     42       9.0653      0.00000
     43       9.3410      0.00000
     44       9.6082      0.00000
     45      10.1735      0.00000
     46      10.3234      0.00000
     47      10.4557      0.00000
     48      11.0344      0.00000
     49      11.1080      0.00000
     50      11.5576      0.00000
     51      11.7062      0.00000
     52      11.8662      0.00000
     53      11.9341      0.00000
     54      12.2724      0.00000
     55      12.3711      0.00000
     56      12.5731      0.00000
     57      12.6212      0.00000
     58      12.8643      0.00000
     59      13.1940      0.00000
     60      13.2272      0.00000
[...]
    114      24.3412      0.00000
    115      24.3633      0.00000
    116      24.5289      0.00000
    117      24.8304      0.00000
    118      24.9727      0.00000
    119      25.3880      0.00000
    120      25.5898      0.00000
    121      25.8017      0.00000
    122      25.8553      0.00000
    123      26.0823      0.00000
    124      26.7558      0.00000
    125      26.8728      0.00000
    126      26.9493      0.00000
    127      27.3584      0.00000
    128      27.4171      0.00000

[...]

 spin component 2

[...]

 k-point    60 :       0.5000    0.0000    0.0000
  band No.  band energies     occupation
      1     -14.3843      1.00000
      2     -14.2183      1.00000
      3     -14.0683      1.00000
      4     -13.8072      1.00000
      5      -8.8549      1.00000
      6      -8.7486      1.00000
      7      -7.4400      1.00000
      8      -6.3166      1.00000
      9      -5.1721      1.00000
     10      -4.7842      1.00000
     11      -4.5427      1.00000
     12      -4.4639      1.00000
     13      -4.3267      1.00000
     14      -3.9573      1.00000
     15      -3.8718      1.00000
     16      -3.3322      1.00000
     17      -1.7460      1.00000
     18      -1.3847      1.00000
     19      -1.3738      1.00000
     20       0.0777      0.00000
     21       0.6477      0.00000
     22       0.8987      0.00000
     23       1.1207      0.00000
     24       1.2220      0.00000
     25       2.2316      0.00000
     26       3.4904      0.00000
     27       4.6155      0.00000
     28       4.7254      0.00000
     29       4.9906      0.00000
     30       5.4261      0.00000
     31       5.8540      0.00000
     32       6.5340      0.00000
     33       6.7836      0.00000
     34       7.1997      0.00000
     35       7.3585      0.00000
     36       8.0110      0.00000
     37       8.0526      0.00000
     38       8.2278      0.00000
     39       8.4639      0.00000
     40       9.0214      0.00000
     41       9.0532      0.00000
     42       9.0812      0.00000
     43       9.3546      0.00000
     44       9.6598      0.00000
     45      10.1918      0.00000
     46      10.3599      0.00000
     47      10.4974      0.00000
     48      11.0559      0.00000
     49      11.1320      0.00000
     50      11.6049      0.00000
     51      11.7444      0.00000
     52      11.9115      0.00000
     53      11.9529      0.00000
     54      12.2894      0.00000
     55      12.3944      0.00000
     56      12.6283      0.00000
     57      12.6659      0.00000
     58      12.8938      0.00000
     59      13.2089      0.00000
     60      13.2544      0.00000
[...]
    114      24.3741      0.00000
    115      24.4049      0.00000
    116      24.5740      0.00000
    117      24.8629      0.00000
    118      25.0071      0.00000
    119      25.4090      0.00000
    120      25.6224      0.00000
    121      25.8865      0.00000
    122      25.9066      0.00000
    123      26.1085      0.00000
    124      26.7983      0.00000
    125      26.9021      0.00000
    126      27.0029      0.00000
    127      27.3833      0.00000
    128      27.3881      0.00000

 soft charge-density along one line, spin component           1
         0         1         2         3         4         5         6         7         8         9
 total charge-density along one line

 soft charge-density along one line, spin component           2
         0         1         2         3         4         5         6         7         8         9
 total charge-density along one line

------------------------ aborting loop because EDIFF is reached ----------------------------------------

 total charge

# of ion       s       p       d       tot
    1        1.064   1.187   0.225   2.476
    2        1.064   1.187   0.225   2.476
    3        0.389   0.496   7.418   8.304
    4        1.339   2.327   0.000   3.666
    5        1.339   2.327   0.000   3.666
    6        1.332   2.396   0.000   3.727
    7        1.332   2.396   0.000   3.727
tot          7.859  12.316   7.869  28.043

 magnetization (x)

[...]

  FORCE on cell =-STRESS in cart. coord.  units (eV):
  Direction    XX          YY          ZZ          XY          YZ          ZX
  Alpha Z    32.81390    32.81390    32.81390
  Ewald   12800.27761 12800.27733-14075.88002    -0.00013    -0.00023     0.00019
  Hartree 13206.00465 13206.00468-12998.67173     0.00003    -0.00001    -0.00002
  E(xc)    -151.59803  -151.59804  -152.44473    -0.00001    -0.00000     0.00001
  Local  -26712.48667-26712.48681 26369.68807    -0.00004     0.00018    -0.00012
  n-local   296.02647   297.55513   294.77631    -2.85977    -0.06451     0.11292
  augment    90.97603    90.97635    94.09864     0.00026     0.00001    -0.00003
  Kinetic   436.21659   441.16032   436.39481    -4.78451     0.65413     1.59686
  Fock        0.00000     0.00000     0.00000     0.00000     0.00000     0.00000
  Total       1.46670     1.46670     0.77525    -0.00000    -0.00000     0.00000
  in kB       7.41584     7.41585     3.91978    -0.00000    -0.00000     0.00000

 VOLUME and BASIS-vectors are now :
  energy-cutoff  :      520.00
  volume of cell :      316.88
      direct lattice vectors                 reciprocal lattice vectors
     3.560145166  0.000000000  0.000000000     0.280887423  0.162170389  0.000000000
    -1.780072583  3.083176921  0.000000000     0.000000000  0.324340778  0.000000000
     0.000000000  0.000000000 28.868563000     0.000000000  0.000000000  0.034639757

  length of vectors
     3.560145166  3.560145830 28.868563000     0.324340838  0.324340778  0.034639757

 FORCES acting on ions
    electron-ion (+dipol)            ewald-force                    non-local-force                 convergence-correction
   0.327E-04 -.278E-04 -.417E+03   0.107E-03 -.476E-04 0.416E+03   0.244E-17 0.688E-18 0.340E+00   -.323E-10 0.156E-10 -.383E-04
   -.327E-04 0.278E-04 0.417E+03   -.107E-03 0.476E-04 -.416E+03   -.230E-17 -.402E-18 -.340E+00   0.323E-10 -.156E-10 0.383E-04
   -.552E-13 0.215E-14 0.481E-11   0.434E-15 0.265E-13 -.568E-13   0.469E-25 -.193E-25 0.356E-26   -.465E-13 0.329E-14 0.446E-12
   -.866E-03 0.469E-03 0.471E+03   -.209E-03 0.158E-03 -.467E+03   0.454E-17 -.127E-16 -.377E+01   0.234E-09 -.136E-09 0.125E-04
   0.866E-03 -.469E-03 -.471E+03   0.209E-03 -.158E-03 0.467E+03   -.176E-16 0.114E-16 0.377E+01   -.234E-09 0.136E-09 -.125E-04
   -.101E-02 0.588E-03 -.100E+04   -.109E-03 0.476E-04 0.101E+04   -.412E-16 0.251E-16 -.533E+01   0.214E-09 -.123E-09 -.997E-04
   0.101E-02 -.588E-03 0.100E+04   0.109E-03 -.476E-04 -.101E+04   0.674E-16 -.153E-16 0.533E+01   -.214E-09 0.123E-09 0.997E-04
   -.533E-12 -.151E-12 0.348E-10   0.459E-14 0.322E-13 0.114E-12   0.132E-16 0.889E-17 -.888E-15   -.452E-13 -.208E-14 0.940E-12

 POSITION                                       TOTAL-FORCE (eV/Angst)
     -0.00000      2.05545     17.74970        -0.000000     -0.000000     -0.051347
      1.78007      1.02772     11.11886        -0.000000     -0.000000      0.051347
      0.00000      0.00000     14.43428        -0.000000     -0.000000      0.000000
      1.78007      1.02772     13.38319        -0.000000      0.000000      0.000282
     -0.00000      2.05545     15.48537         0.000000      0.000000     -0.000282
      1.78007      1.02772     18.83975         0.000000     -0.000000      0.130564
     -0.00000      2.05545     10.02881        -0.000000      0.000000     -0.130564
    total drift:                               -0.000000     -0.000000      0.000000

  FREE ENERGIE OF THE ION-ELECTRON SYSTEM (eV)
  free  energy   TOTEN  =       -34.80111492 eV

  energy  without entropy=      -34.80086601  energy(sigma->0) =      -34.80099047

 total charge

[...]

 magnetization (x)

# of ion       s       p       d       tot
    1        0.012   0.008   0.002   0.023
    2        0.012   0.008   0.002   0.023
    3        0.001   0.003   0.820   0.823
    4        0.022  -0.004   0.000   0.018
    5        0.022  -0.004   0.000   0.018
    6        0.000   0.011   0.000   0.011
    7        0.000   0.011   0.000   0.011
tot          0.069   0.034   0.824   0.927