 vasp.5.4.4.18Apr17-6-g9f103f2a35 (build Sep 11 2018 16:04:24) complex

 executed on        TETRALITH-B01 date 2021.12.15  23:28:03

 INCAR:
 POTCAR:    PAW_PBE Ga 08Apr2002
 POTCAR:    PAW_PBE Co 02Aug2007
 POTCAR:    PAW_PBE S 06Sep2000

 POTCAR:    PAW_PBE Ga 08Apr2002
   VRHFIN =Ga: s2p1

   TITEL  = PAW_PBE Ga 08Apr2002
   POMASS =   69.723; ZVAL   =    3.000    mass and valenz
   ENMAX  =  134.678; ENMIN  =  101.009 eV

 POTCAR:    PAW_PBE Co 02Aug2007
   VRHFIN =Co: d8 s1

   TITEL  = PAW_PBE Co 02Aug2007
   POMASS =   58.933; ZVAL   =    9.000    mass and valenz
   ENMAX  =  267.968; ENMIN  =  200.976 eV

 POTCAR:    PAW_PBE S 06Sep2000
   VRHFIN =S : s2p4

   TITEL  = PAW_PBE S 06Sep2000
   POMASS =   32.066; ZVAL   =    6.000    mass and valenz
   ENMAX  =  258.689; ENMIN  =  194.016 eV

  PAW_PBE Ga 08Apr2002                  :
  PAW_PBE Co 02Aug2007                  :
  PAW_PBE S 06Sep2000                   :

 POSCAR: Ga2 Co1 S4
  positions in direct lattice
 exchange correlation table for  LEXCH =       14
   RHO(1)=    0.500       N(1)  =     2000
   RHO(2)=  100.500       N(2)  =     4000

 ion  position               nearest neighbor table
   1  0.333  0.667  0.617-   5 2.22   6 2.35   6 2.35   6 2.35
   2  0.667  0.333  0.383-   4 2.22   7 2.35   7 2.35   7 2.35
   3  0.000  0.000  0.500-   4 2.41   5 2.41   4 2.41   5 2.41   4 2.41   5 2.41
   4  0.667  0.333  0.459-   2 2.22   3 2.41   3 2.41   3 2.41
   5  0.333  0.667  0.541-   1 2.22   3 2.41   3 2.41   3 2.41
   6  0.667  0.333  0.654-   1 2.35   1 2.35   1 2.35
   7  0.333  0.667  0.346-   2 2.35   2 2.35   2 2.35

  LATTYP: Found a hexagonal cell.
 ALAT       =     3.6412867115
 C/A-ratio  =     7.9281213723

  Lattice vectors:

 A1 = (   3.6412860000,   0.0000000000,   0.0000000000)
 A2 = (  -1.8206430000,   3.1534470000,   0.0000000000)
 A3 = (   0.0000000000,   0.0000000000,  28.8685630000)

Analysis of symmetry for initial positions (statically):
 Subroutine PRICEL returns:
 Original cell was already a primitive cell.

 Routine SETGRP: Setting up the symmetry group for a
 hexagonal supercell.

 Subroutine GETGRP returns: Found 12 space group operations
 (whereof 12 operations were pure point group operations)
 out of a pool of 24 trial point group operations.

The static configuration has the point symmetry D_3d.

Analysis of symmetry for dynamics (positions and initial velocities):
 Subroutine PRICEL returns:
 Original cell was already a primitive cell.

[...]

The dynamic configuration has the point symmetry D_3d.

Analysis of structural, dynamic, and magnetic symmetry:
 Subroutine PRICEL returns:
 Original cell was already a primitive cell.

 Routine SETGRP: Setting up the symmetry group for a
 hexagonal supercell.

 Subroutine GETGRP returns: Found 12 space group operations
 (whereof 12 operations were pure point group operations)
 out of a pool of 24 trial point group operations.

The magnetic configuration has the point symmetry D_3d.

 Subroutine INISYM returns: Found 12 space group operations
 (whereof 12 operations are pure point group operations),
 and found     1 'primitive' translations

 KPOINTS: K-Spacing Value to Generate K-Mesh: 0.04

Automatic generation of k-mesh.
Space group operators:
 irot       det(A)        alpha          n_x          n_y          n_z        tau_x        tau_y        tau_z
    1     1.000000     0.000000     1.000000     0.000000     0.000000     0.000000     0.000000     0.000000
    2    -1.000000     0.000000     1.000000     0.000000     0.000000     0.000000     0.000000     0.000000
    3     1.000000   120.000000     0.000000     0.000000    -1.000000     0.000000     0.000000     0.000000
    4    -1.000000   120.000000     0.000000     0.000000    -1.000000     0.000000     0.000000     0.000000
    5     1.000000   120.000000     0.000000     0.000000     1.000000     0.000000     0.000000     0.000000
    6    -1.000000   120.000000     0.000000     0.000000     1.000000     0.000000     0.000000     0.000000
    7     1.000000   180.000000     1.000000    -0.000000     0.000000     0.000000     0.000000     0.000000
    8    -1.000000   180.000000     1.000000    -0.000000     0.000000     0.000000     0.000000     0.000000
    9     1.000000   180.000000     0.500000    -0.866025     0.000000     0.000000     0.000000     0.000000
   10    -1.000000   180.000000     0.500000    -0.866025     0.000000     0.000000     0.000000     0.000000
   11     1.000000   180.000000    -0.500000    -0.866025     0.000000     0.000000     0.000000     0.000000
   12    -1.000000   180.000000    -0.500000    -0.866025     0.000000     0.000000     0.000000     0.000000

 Subroutine IBZKPT returns following result:

 Found     12 irreducible k-points:

 Following reciprocal coordinates:
            Coordinates               Weight
  0.000000  0.000000  0.000000      1.000000
  0.111111 -0.000000  0.000000      6.000000
  0.222222 -0.000000  0.000000      6.000000
  0.333333  0.000000  0.000000      6.000000
  0.444444 -0.000000  0.000000      6.000000
  0.111111  0.111111  0.000000      6.000000
  0.222222  0.111111  0.000000     12.000000
  0.333333  0.111111  0.000000     12.000000
  0.444444  0.111111  0.000000      6.000000
  0.222222  0.222222  0.000000      6.000000
  0.333333  0.222222  0.000000     12.000000
  0.333333  0.333333  0.000000      2.000000

 Following cartesian coordinates:
            Coordinates               Weight
  0.000000  0.000000  0.000000      1.000000
  0.030514  0.017617  0.000000      6.000000
  0.061028  0.035235  0.000000      6.000000
  0.091543  0.052852  0.000000      6.000000
  0.122057  0.070470  0.000000      6.000000
  0.030514  0.052852  0.000000      6.000000
  0.061028  0.070470  0.000000     12.000000
  0.091543  0.088087  0.000000     12.000000
  0.122057  0.105704  0.000000      6.000000
  0.061028  0.105704  0.000000      6.000000
  0.091543  0.123322  0.000000     12.000000
  0.091543  0.158557  0.000000      2.000000

 SYSTEM =  unknown system
 POSCAR =  Ga2 Co1 S4

 Startparameter for this run:
   NWRITE =      2    write-flag & timer
   PREC   = normal    normal or accurate (medium, high low for compatibility)
   ISTART =      0    job   : 0-new  1-cont  2-samecut
   ICHARG =      2    charge: 1-file 2-atom 10-const
   ISPIN  =      2    spin polarized calculation?
   LNONCOLLINEAR =      F non collinear calculations
   LSORBIT =      F    spin-orbit coupling
   INIWAV =      1    electr: 0-lowe 1-rand  2-diag
   LASPH  =      F    aspherical Exc in radial PAW
   METAGGA=      F    non-selfconsistent MetaGGA calc.

 Electronic Relaxation 1
   ENCUT  =  520.0 eV  38.22 Ry    6.18 a.u.   6.77  6.77 53.68*2*pi/ulx,y,z
   ENINI  =  520.0     initial cutoff
   ENAUG  =  477.8 eV  augmentation charge cutoff
   NELM   =     40;   NELMIN=  6; NELMDL= -5     # of ELM steps
   EDIFF  = 0.1E-05   stopping-criterion for ELM
   LREAL  =      F    real-space projection
   NLSPLINE    = F    spline interpolate recip. space projectors
   LCOMPAT=      F    compatible to vasp.4.4
   GGA_COMPAT  = T    GGA compatible to vasp.4.4-vasp.4.6
   LMAXPAW     = -100 max onsite density
   LMAXMIX     =    2 max onsite mixed and CHGCAR
   VOSKOWN=      0    Vosko Wilk Nusair interpolation
   ROPT   =    0.00000   0.00000   0.00000
 Ionic relaxation
   EDIFFG = -.1E-01   stopping-criterion for IOM
   NSW    =    300    number of steps for IOM
   NBLOCK =      1;   KBLOCK =    300    inner block; outer block
   IBRION =      2    ionic relax: 0-MD 1-quasi-New 2-CG
   NFREE  =      1    steps in history (QN), initial steepest desc. (CG)
   ISIF   =      3    stress and relaxation
   IWAVPR =     11    prediction:  0-non 1-charg 2-wave 3-comb
   ISYM   =      2    0-nonsym 1-usesym 2-fastsym
   LCORR  =      T    Harris-Foulkes like correction to forces

   POTIM  = 0.5000    time-step for ionic-motion
   TEIN   =    0.0    initial temperature
   TEBEG  =    0.0;   TEEND  =   0.0 temperature during run
   SMASS  =  -3.00    Nose mass-parameter (am)
   estimated Nose-frequenzy (Omega)   =  0.10E-29 period in steps =****** mass=  -0.303E-27a.u.
   SCALEE = 1.0000    scale energy and forces
   NPACO  =    256;   APACO  = 16.0  distance and # of slots for P.C.
   PSTRESS=    0.0 pullay stress

  Mass of Ions in am
   POMASS =  69.72 58.93 32.07
  Ionic Valenz
   ZVAL   =   3.00  9.00  6.00
  Atomic Wigner-Seitz radii
  virtual crystal weights
   VCA    =   1.00  1.00  1.00
   NELECT =      39.0000    total number of electrons
   NUPDOWN=      -1.0000    fix difference up-down

 DOS related values:
   EMIN   =  10.00;   EMAX   =-10.00  energy-range for DOS
   EFERMI =   0.00
   ISMEAR =     0;   SIGMA  =   0.02  broadening in eV -4-tet -1-fermi 0-gaus

 Electronic relaxation 2 (details)
   IALGO  =     38    algorithm
   LDIAG  =      T    sub-space diagonalisation (order eigenvalues)
   LSUBROT=      F    optimize rotation matrix (better conditioning)
   TURBO    =      0    0=normal 1=particle mesh
   IRESTART =      0    0=no restart 2=restart with 2 vectors
   NREBOOT  =      0    no. of reboots
   NMIN     =      0    reboot dimension
   EREF     =   0.00    reference energy to select bands
   IMIX   =      4    mixing-type and parameters
     AMIX     =   0.40;   BMIX     =  1.00
     AMIX_MAG =   1.60;   BMIX_MAG =  1.00
     AMIN     =   0.10
     WC   =   100.;   INIMIX=   1;  MIXPRE=   1;  MAXMIX= -45

 Intra band minimization:
   WEIMIN = 0.0010     energy-eigenvalue tresh-hold
   EBREAK =  0.20E-08  absolut break condition
   DEPER  =   0.30     relativ break condition

   TIME   =   0.40     timestep for ELM

  volume/ion in A,a.u.               =      47.36       319.57
  Fermi-wavevector in a.u.,A,eV,Ry     =   0.802185  1.515910  8.755360  0.643501
  Thomas-Fermi vector in A             =   1.909814

 Write flags
   LWAVE        =      F    write WAVECAR
   LDOWNSAMPLE  =      F    k-point downsampling of WAVECAR
   LCHARG       =      F    write CHGCAR
   LVTOT        =      F    write LOCPOT, total local potential
   LVHAR        =      F    write LOCPOT, Hartree potential only
   LELF         =      F    write electronic localiz. function (ELF)
   LORBIT       =     11    0 simple, 1 ext, 2 COOP (PROOUT), +10 PAW based schemes

 Dipole corrections
   LMONO  =      F    monopole corrections only (constant potential shift)
   LDIPOL =      F    correct potential (dipole corrections)
   IDIPOL =      0    1-x, 2-y, 3-z, 4-all directions
   EPSILON=  1.0000000 bulk dielectric constant

 Exchange correlation treatment:
   GGA     =    PS    GGA type
   VOSKOWN=      0    Vosko Wilk Nusair interpolation
   LHFCALC =     F    Hartree Fock is set to
   LHFONE  =     F    Hartree Fock one center treatment
   AEXX    =    0.0000 exact exchange contribution

 Linear response parameters
   LEPSILON=     F    determine dielectric tensor
   LRPA    =     F    only Hartree local field effects (RPA)
   LNABLA  =     F    use nabla operator in PAW spheres
   LVEL    =     F    velocity operator in full k-point grid
   LINTERFAST=   F  fast interpolation
   KINTER  =     0    interpolate to denser k-point grid
[...]
  Alpha Z    31.36777    31.36777    31.36777
  Ewald   11963.67559 11963.67542-13190.51798    -0.00004    -0.00021     0.00014
  Hartree 12399.96031 12399.96034-12176.52698     0.00002    -0.00001    -0.00002
  E(xc)    -150.38042  -150.38042  -151.43918     0.00000    -0.00000     0.00001
  Local  -25066.44214-25066.44239 24666.25849    -0.00014     0.00017    -0.00010
  n-local   291.89539   293.61909   295.28818    -3.90473    -0.25578     0.02583
  augment    92.65481    92.65514    92.55582     0.00027     0.00001    -0.00003
  Kinetic   428.87332   435.47309   431.62560    -5.97075    -0.30708     1.06305
  Fock        0.00000     0.00000     0.00000     0.00000     0.00000     0.00000
  Total      -4.23367    -4.23367    -1.38827     0.00000     0.00000     0.00000
  in kB     -20.46266   -20.46267    -6.70996     0.00000     0.00000     0.00000

 VOLUME and BASIS-vectors are now :
  energy-cutoff  :      520.00
  volume of cell :      331.49
      direct lattice vectors                 reciprocal lattice vectors
     3.641286000  0.000000000  0.000000000     0.274628249  0.158556652  0.000000000
    -1.820643000  3.153447000  0.000000000     0.000000000  0.317113305  0.000000000
     0.000000000  0.000000000 28.868563000     0.000000000  0.000000000  0.034639757

[...]

 FORCES acting on ions
    electron-ion (+dipol)            ewald-force                    non-local-force                 convergence-correction
   0.369E-04 -.309E-04 -.400E+03   0.111E-03 -.490E-04 0.399E+03   -.505E-17 0.300E-17 0.121E+01   -.364E-10 0.191E-10 -.111E-04
   -.369E-04 0.309E-04 0.400E+03   -.111E-03 0.490E-04 -.399E+03   0.494E-17 -.324E-17 -.121E+01   0.364E-10 -.191E-10 0.111E-04
   -.143E-12 0.103E-13 0.483E-11   -.833E-14 -.792E-14 0.000E+00   0.948E-28 0.280E-25 -.571E-25   -.383E-13 0.571E-14 0.356E-12
   -.930E-03 0.509E-03 0.453E+03   -.170E-03 0.133E-03 -.449E+03   0.221E-16 -.949E-18 -.231E+01   0.322E-09 -.190E-09 -.243E-04
   0.930E-03 -.509E-03 -.453E+03   0.170E-03 -.133E-03 0.449E+03   0.135E-16 -.188E-17 0.231E+01   -.322E-09 0.190E-09 0.243E-04
   -.104E-02 0.608E-03 -.949E+03   -.114E-03 0.495E-04 0.954E+03   0.629E-16 0.457E-17 -.522E+01   0.297E-09 -.167E-09 -.354E-04
   0.104E-02 -.608E-03 0.949E+03   0.114E-03 -.495E-04 -.954E+03   -.159E-16 -.400E-17 0.522E+01   -.297E-09 0.167E-09 0.354E-04
   0.404E-13 0.541E-12 0.220E-10   0.886E-14 -.613E-15 0.000E+00   0.825E-16 -.248E-17 0.000E+00   -.364E-13 -.163E-14 0.722E-12

 POSITION                                       TOTAL-FORCE (eV/Angst)
     -0.00000      2.10230     17.82360         0.000000      0.000000      0.364591
      1.82064      1.05115     11.04497         0.000000     -0.000000     -0.364591
      0.00000      0.00000     14.43428         0.000000     -0.000000     -0.000000
      1.82064      1.05115     13.26320        -0.000000      0.000000      1.613714
     -0.00000      2.10230     15.60536         0.000000     -0.000000     -1.613714
      1.82064      1.05115     18.87025         0.000000     -0.000000     -0.005288
     -0.00000      2.10230      9.99831        -0.000000      0.000000      0.005288
    total drift:                                0.000000      0.000000      0.000000

  FREE ENERGIE OF THE ION-ELECTRON SYSTEM (eV)
  free  energy   TOTEN  =       -35.65802283 eV

  energy  without entropy=      -35.65681802  energy(sigma->0) =      -35.65742043

[...]

 d Force = 0.1079106E+00[-0.483E-01, 0.264E+00]  d Energy = 0.1814858E+00-0.736E-01
 d Force =-0.5845600E+02[-0.606E+02,-0.563E+02]  d Ewald  =-0.7916832E+03 0.733E+03

 Steepest descent step on ions:
 trial-energy change:   -0.181486  1 .order   -0.174335   -0.511140    0.162470
  (g-gl).g = 0.511E+00      g.g   = 0.511E+00  gl.gl    = 0.000E+00
 g(Force)  = 0.264E+00   g(Stress)= 0.247E+00 ortho     = 0.000E+00
 gamma     =   0.00000
 trial     =   1.00000
 opt step  =   0.77008  (harmonic =   0.75881) maximal distance =0.05995094
 next E    =   -35.858099   (d E  =  -0.20008)

[...]

 d Force = 0.2986139E-02[-0.512E-02, 0.111E-01]  d Energy = 0.1892460E-01-0.159E-01
 d Force = 0.1382046E+02[ 0.137E+02, 0.139E+02]  d Ewald  = 0.1888153E+03-0.175E+03

[...]

 d Force = 0.6587368E-01[ 0.259E-01, 0.106E+00]  d Energy = 0.6447926E-01 0.139E-02
 d Force =-0.8760804E+01[-0.866E+01,-0.886E+01]  d Ewald  =-0.9488641E+02 0.861E+02

 Conjugate gradient step on ions:
 trial-energy change:   -0.064479  1 .order   -0.063991   -0.103290   -0.024692
  (g-gl).g = 0.108E+00      g.g   = 0.108E+00  gl.gl    = 0.511E+00
 g(Force)  = 0.106E+00   g(Stress)= 0.197E-02 ortho     = 0.247E-03
 gamma     =   0.21123
 trial     =   0.95402
 opt step  =   1.23988  (harmonic =   1.25373) maximal distance =0.04542663
 next E    =   -35.926625   (d E  =  -0.06819)

[...]

 Broyden mixing:
  rms(total) = 0.35043E-05    rms(broyden)= 0.28453E-05
  rms(prec ) = 0.31142E-05
  weight for this iteration     100.00
  WARNING: grid for Broyden might be to small

[...]

 d Force = 0.1763539E-02[ 0.129E-02, 0.223E-02]  d Energy = 0.1860204E-02-0.967E-04
 d Force =-0.1233039E+02[-0.123E+02,-0.123E+02]  d Ewald  = 0.1543787E+02-0.278E+02

 Conjugate gradient step on ions:
 trial-energy change:   -0.001860  1 .order   -0.001862   -0.002564   -0.001160
  (g-gl).g =-0.126E-02      g.g   = 0.254E-02  gl.gl    = 0.108E+00
 g(Force)  = 0.222E-02   g(Stress)= 0.313E-03 ortho     =-0.273E-05
 gamma     =  -0.01162
 trial     =   1.01119
 opt step  =   1.84735  (harmonic =   1.84735) maximal distance =0.00924759
 next E    =   -35.928957   (d E  =  -0.00234)

[...]

 Broyden mixing:
  rms(total) = 0.43832E-05    rms(broyden)= 0.38674E-05
  rms(prec ) = 0.41386E-05
  weight for this iteration     100.00
  WARNING: grid for Broyden might be to small

[...]

 Conjugate gradient step on ions:
 trial-energy change:   -0.001069  1 .order   -0.001068   -0.001128   -0.001009
  (g-gl).g = 0.417E-02      g.g   = 0.415E-02  gl.gl    = 0.254E-02
 g(Force)  = 0.340E-02   g(Stress)= 0.753E-03 ortho     =-0.219E-04
 gamma     =   1.64416
 trial     =   0.27397
 opt step  =   1.09587  (harmonic =   2.61262) maximal distance =0.01599757
 next E    =   -35.934320   (d E  =  -0.00538)

[...]

 d Force = 0.2533334E-02[ 0.199E-02, 0.308E-02]  d Energy = 0.2496061E-02 0.373E-04
 d Force =-0.3084756E+02[-0.309E+02,-0.308E+02]  d Ewald  =-0.2742902E+02-0.342E+01

[...]

 d Force = 0.1798795E-02[-0.375E-03, 0.397E-02]  d Energy = 0.1874476E-02-0.757E-04
 d Force =-0.6177900E+02[-0.618E+02,-0.617E+02]  d Ewald  =-0.5492059E+02-0.686E+01

[...]

 Conjugate gradient step on ions:
 trial-energy change:   -0.001949  1 .order   -0.001947   -0.002547   -0.001347
  (g-gl).g = 0.335E-02      g.g   = 0.345E-02  gl.gl    = 0.415E-02
 g(Force)  = 0.279E-02   g(Stress)= 0.656E-03 ortho     =-0.157E-03
 gamma     =   0.80633
 trial     =   0.76711
 opt step  =   1.62877  (harmonic =   1.62877) maximal distance =0.01524664
 next E    =   -35.937087   (d E  =  -0.00270)

[...]

 d Force = 0.7670776E-03[ 0.234E-03, 0.130E-02]  d Energy = 0.7829525E-03-0.159E-04
 d Force =-0.2857697E+02[-0.285E+02,-0.286E+02]  d Ewald  = 0.7408400E+01-0.360E+02

[...]

 eigenvalue-minimisations  : 11776
 total energy-change (2. order) : 0.2431278E-05  (-0.1961160E-05)
 number of electron      38.9999954 magnetization       0.9999999
 augmentation part        0.9208868 magnetization       0.6530387

[...]

 Broyden mixing:
  rms(total) = 0.29155E-03    rms(broyden)= 0.29154E-03
  rms(prec ) = 0.29660E-03
  weight for this iteration     100.00

 eigenvalues of (default mixing * dielectric matrix)
  average eigenvalue GAMMA=   1.2074
  2.4471  1.7252  0.3015  0.9284  0.6350

[...]

--------------------------------------- Iteration     13(   7)  ---------------------------------------

 eigenvalue-minimisations  :  9984
 total energy-change (2. order) :-0.9968217E-06  (-0.4006416E-07)
 number of electron      38.9999954 magnetization       0.9999999
 augmentation part        0.9208996 magnetization       0.6530534

 Free energy of the ion-electron system (eV)
  alpha Z        PSCENC =        32.81390211
  Ewald energy   TEWEN  =     11524.67585812
  -Hartree energ DENC   =    -13414.04901299
  -exchange      EXHF   =         0.00000000
  -V(xc)+E(xc)   XCENC  =        31.39295481
  PAW double counting   =      3793.97691030    -3787.50178020
  entropy T*S    EENTRO =        -0.00114083
  eigenvalues    EBANDS =      -251.64644246
  atomic energy  EATOM  =      2034.40150045
  Solvation  Ediel_sol  =         0.00000000
  free energy    TOTEN  =       -35.93725070 eV

  energy without entropy =      -35.93610986  energy(sigma->0) =      -35.93668028

 average (electrostatic) potential at core
  the test charge radii are     1.2767  1.0452  0.9698
  (the norm of the test charge is              1.0000)
       1 -18.7000       2 -18.7000       3 -88.5528       4 -92.8695       5 -92.8695
       6 -93.1316       7 -93.1316

 E-fermi :  -0.3325     XC(G=0):  -4.4075     alpha+bet : -4.2391

[...]

 spin component 2

[...]

 k-point    12 :       0.3333    0.3333    0.0000
  band No.  band energies     occupation
      1     -13.9819      1.00000
      2     -13.9819      1.00000
      3     -13.8992      1.00000
      4     -13.8991      1.00000
      5      -8.5304      1.00000
      6      -8.5304      1.00000
      7      -6.8322      1.00000
      8      -6.4573      1.00000
      9      -6.2892      1.00000
     10      -6.2892      1.00000
     11      -6.0644      1.00000
     12      -4.5571      1.00000
     13      -4.5570      1.00000
     14      -3.8476      1.00000
     15      -3.8476      1.00000
     16      -3.8271      1.00000
     17      -1.5150      1.00000
     18      -1.1802      1.00000
     19      -1.1802      1.00000
     20       0.3713      0.00000
     21       0.3714      0.00000
     22       1.8270      0.00000
     23       1.8953      0.00000
     24       1.8953      0.00000
     25       2.3444      0.00000
     26       4.8107      0.00000
     27       4.8107      0.00000
     28       5.9285      0.00000
     29       5.9285      0.00000
     30       6.6097      0.00000
     31       6.6740      0.00000
     32       6.7802      0.00000
     33       7.4909      0.00000
     34       7.4909      0.00000
     35       7.9476      0.00000
     36       8.4968      0.00000
     37       8.4968      0.00000
     38       8.5875      0.00000
     39       8.7411      0.00000
     40       8.7411      0.00000
     41       9.0603      0.00000
     42       9.1163      0.00000
     43       9.3157      0.00000
     44       9.3161      0.00000
     45       9.5857      0.00000
     46       9.5857      0.00000
     47       9.6966      0.00000
     48       9.8894      0.00000
     49      10.2730      0.00000
     50      10.2731      0.00000
     51      10.4881      0.00000
     52      10.4884      0.00000
     53      11.0202      0.00000
     54      11.1097      0.00000
     55      11.5038      0.00000
     56      11.5040      0.00000
     57      11.8025      0.00000
     58      11.8029      0.00000
     59      12.3648      0.00000
     60      12.3650      0.00000
[...]
    114      24.9861      0.00000
    115      25.0190      0.00000
    116      25.0194      0.00000
    117      25.3429      0.00000
    118      25.6180      0.00000
    119      25.6183      0.00000
    120      25.6519      0.00000
    121      25.6519      0.00000
    122      25.7011      0.00000
    123      25.9575      0.00000
    124      25.9925      0.00000
    125      26.3298      0.00000
    126      26.3299      0.00000
    127      26.7544      0.00000
    128      26.9630      0.00000

[...]

 soft charge-density along one line, spin component           2
         0         1         2         3         4         5         6         7         8         9
 total charge-density along one line

------------------------ aborting loop because EDIFF is reached ----------------------------------------

[...]

  FORCE on cell =-STRESS in cart. coord.  units (eV):
  Direction    XX          YY          ZZ          XY          YZ          ZX
  Alpha Z    32.81390    32.81390    32.81390
  Ewald   12800.27761 12800.27733-14075.88002    -0.00013    -0.00023     0.00019
  Hartree 13207.81869 13207.81872-13001.57866     0.00003    -0.00001    -0.00002
  E(xc)    -151.45275  -151.45276  -152.36030    -0.00001    -0.00000     0.00001
  Local  -26713.21676-26713.21689 26372.05196    -0.00004     0.00018    -0.00013
  n-local   295.65837   297.28664   296.17955    -3.45362    -0.19093     0.24741
  augment    91.25693    91.25725    92.77879     0.00026     0.00001    -0.00003
  Kinetic   432.83845   439.20569   435.98798    -4.75525    -0.11719     1.89596
  Fock        0.00000     0.00000     0.00000     0.00000     0.00000     0.00000
  Total      -0.00784    -0.00784    -0.00679    -0.00000    -0.00000     0.00000
  in kB      -0.03962    -0.03962    -0.03435    -0.00000    -0.00000     0.00000

 VOLUME and BASIS-vectors are now :
  energy-cutoff  :      520.00
  volume of cell :      316.88
      direct lattice vectors                 reciprocal lattice vectors
     3.560145166  0.000000000  0.000000000     0.280887423  0.162170389  0.000000000
    -1.780072583  3.083176921  0.000000000    -0.000000000  0.324340778  0.000000000
     0.000000000  0.000000000 28.868563000     0.000000000  0.000000000  0.034639757

  length of vectors
     3.560145166  3.560145830 28.868563000     0.324340838  0.324340778  0.034639757

 FORCES acting on ions
    electron-ion (+dipol)            ewald-force                    non-local-force                 convergence-correction
   0.333E-04 -.282E-04 -.417E+03   0.107E-03 -.476E-04 0.416E+03   0.406E-17 0.393E-18 0.315E+00   0.147E-09 -.116E-09 0.146E-03
   -.333E-04 0.282E-04 0.417E+03   -.107E-03 0.476E-04 -.416E+03   -.638E-17 0.126E-18 -.315E+00   -.147E-09 0.116E-09 -.146E-03
   -.404E-13 0.158E-13 0.476E-11   0.120E-14 0.264E-13 -.568E-12   -.304E-26 0.397E-26 -.675E-26   -.423E-13 -.592E-15 0.469E-12
   -.867E-03 0.470E-03 0.471E+03   -.209E-03 0.158E-03 -.467E+03   -.347E-17 0.229E-16 -.340E+01   0.165E-08 -.768E-09 -.102E-02
   0.867E-03 -.470E-03 -.471E+03   0.209E-03 -.158E-03 0.467E+03   -.219E-17 -.904E-17 0.340E+01   -.165E-08 0.768E-09 0.102E-02
   -.101E-02 0.590E-03 -.100E+04   -.109E-03 0.476E-04 0.101E+04   -.227E-16 -.323E-18 -.490E+01   -.773E-09 0.467E-09 0.389E-03
   0.101E-02 -.590E-03 0.100E+04   0.109E-03 -.476E-04 -.101E+04   0.132E-16 -.612E-17 0.490E+01   0.773E-09 -.467E-09 -.389E-03
   0.316E-12 0.901E-13 0.212E-10   0.459E-14 0.322E-13 0.114E-12   -.175E-16 0.794E-17 0.000E+00   -.336E-13 -.103E-14 0.111E-11

 POSITION                                       TOTAL-FORCE (eV/Angst)
     -0.00000      2.05545     17.74970        -0.000000     -0.000000     -0.006453
      1.78007      1.02772     11.11886         0.000000      0.000000      0.006453
      0.00000     -0.00000     14.43428         0.000000      0.000000     -0.000000
      1.78007      1.02772     13.38319        -0.000000      0.000000      0.007447
     -0.00000      2.05545     15.48537         0.000000     -0.000000     -0.007447
      1.78007      1.02772     18.83975         0.000000      0.000000      0.009216
     -0.00000      2.05545     10.02881        -0.000000      0.000000     -0.009216
    total drift:                                0.000000      0.000000      0.000000

  FREE ENERGIE OF THE ION-ELECTRON SYSTEM (eV)
  free  energy   TOTEN  =       -35.93725070 eV

  energy  without entropy=      -35.93610986  energy(sigma->0) =      -35.93668028

 d Force = 0.8767758E-04[ 0.423E-04, 0.133E-03]  d Energy = 0.1353830E-03-0.477E-04
 d Force = 0.2548810E+00[ 0.255E+00, 0.255E+00]  d Ewald  =-0.1217462E+02 0.124E+02

 Conjugate gradient step on ions:
 trial-energy change:   -0.000135  1 .order   -0.000129   -0.000208   -0.000050
  (g-gl).g = 0.254E-04      g.g   = 0.221E-03  gl.gl    = 0.345E-02
 g(Force)  = 0.140E-03   g(Stress)= 0.812E-04 ortho     = 0.199E-04
 gamma     =   0.00737
 trial     =   0.93944
 opt step  =   1.16623  (harmonic =   1.23722) maximal distance =0.00174671
 next E    =   -35.937257   (d E  =  -0.00014)

 reached required accuracy - stopping structural energy minimisation

 total charge

[...]

 magnetization (x)

# of ion       s       p       d       tot
    1        0.011   0.009   0.002   0.022
    2        0.011   0.009   0.002   0.022
    3        0.001   0.003   0.823   0.826
    4        0.022  -0.008   0.000   0.015
    5        0.022  -0.008   0.000   0.015
    6        0.001   0.013   0.000   0.013
    7        0.001   0.013   0.000   0.013
tot          0.069   0.031   0.827   0.927